%%%mzn-stat: initTime=0.022592392
%%%mzn-stat: objective=216
%%%mzn-stat: nodes=70343
%%%mzn-stat: restarts=2
%%%mzn-stat: peakDepth=894
%%%mzn-stat: solveTime=18.528696951
%%%mzn-stat: variables=1797
%%%mzn-stat: propagators=6379
%%%mzn-stat: failures=55986
%%%mzn-stat: propagations=22985865
%%%mzn-stat: nogoods=55986
%%%mzn-stat: AverageConflictSize=13.884899796377665
%%%mzn-stat: NumUnitNogoodsLearned=184
%%%mzn-stat: AverageLearnedNogoodLength=43.44116386239417
%%%mzn-stat: AverageBacktrackAmount=0
%%%mzn-stat: AverageLbd=19.478423177222876
%%%mzn-stat-end
maxleg = 216;
succ = array1d(1..100,[41, 74, 84, 67, 18, 37, 91, 25, 92, 64, 48, 63, 100, 69, 82, 58, 62, 57, 90, 27, 94, 71, 98, 99, 43, 1, 59, 80, 34, 33, 14, 6, 29, 19, 36, 55, 54, 44, 28, 70, 10, 89, 4, 52, 66, 32, 20, 17, 76, 53, 7, 96, 81, 61, 49, 2, 9, 11, 85, 83, 39, 13, 15, 95, 78, 23, 65, 22, 5, 73, 3, 50, 56, 93, 8, 12, 16, 97, 60, 21, 79, 40, 42, 35, 87, 30, 45, 24, 51, 75, 46, 86, 77, 31, 68, 88, 38, 26, 47, 72]);
% time elapsed: 20.05 s
----------
%%%mzn-stat: initTime=0.022592392
%%%mzn-stat: objective=206
%%%mzn-stat: nodes=86299
%%%mzn-stat: restarts=3
%%%mzn-stat: peakDepth=1016
%%%mzn-stat: solveTime=22.512882348
%%%mzn-stat: variables=1797
%%%mzn-stat: propagators=6379
%%%mzn-stat: failures=67474
%%%mzn-stat: propagations=27706757
%%%mzn-stat: nogoods=67474
%%%mzn-stat: AverageConflictSize=13.306844117734238
%%%mzn-stat: NumUnitNogoodsLearned=184
%%%mzn-stat: AverageLearnedNogoodLength=41.92579363903133
%%%mzn-stat: AverageBacktrackAmount=0
%%%mzn-stat: AverageLbd=18.907742241455967
%%%mzn-stat-end
maxleg = 206;
succ = array1d(1..100,[41, 74, 84, 67, 29, 37, 91, 25, 18, 22, 48, 63, 100, 69, 82, 58, 62, 57, 90, 27, 94, 71, 98, 99, 43, 10, 45, 80, 34, 33, 14, 6, 92, 30, 36, 55, 54, 44, 28, 2, 3, 89, 4, 52, 59, 32, 20, 17, 76, 53, 7, 96, 81, 61, 70, 15, 5, 11, 85, 83, 39, 13, 1, 68, 78, 23, 65, 26, 9, 73, 49, 50, 56, 93, 8, 12, 16, 97, 60, 21, 79, 40, 42, 35, 87, 19, 66, 24, 51, 75, 46, 86, 77, 31, 64, 88, 38, 95, 47, 72]);
% time elapsed: 24.03 s
----------
%%%mzn-stat: initTime=0.022592392
%%%mzn-stat: objective=205
%%%mzn-stat: nodes=95517
%%%mzn-stat: restarts=4
%%%mzn-stat: peakDepth=1016
%%%mzn-stat: solveTime=24.249398762
%%%mzn-stat: variables=1797
%%%mzn-stat: propagators=6379
%%%mzn-stat: failures=73713
%%%mzn-stat: propagations=30755101
%%%mzn-stat: nogoods=73713
%%%mzn-stat: AverageConflictSize=12.942778071710553
%%%mzn-stat: NumUnitNogoodsLearned=184
%%%mzn-stat: AverageLearnedNogoodLength=40.99702901794799
%%%mzn-stat: AverageBacktrackAmount=0
%%%mzn-stat: AverageLbd=18.371427021013933
%%%mzn-stat-end
maxleg = 205;
succ = array1d(1..100,[41, 74, 84, 67, 29, 37, 91, 25, 18, 22, 48, 63, 100, 69, 82, 58, 62, 57, 90, 27, 94, 71, 98, 99, 43, 10, 45, 80, 34, 33, 14, 6, 92, 30, 36, 55, 54, 44, 28, 2, 3, 89, 4, 52, 59, 32, 20, 17, 76, 53, 7, 96, 81, 61, 70, 15, 5, 11, 85, 83, 39, 13, 1, 68, 78, 23, 65, 26, 9, 73, 49, 50, 56, 93, 8, 12, 16, 97, 60, 21, 79, 40, 42, 35, 87, 19, 66, 24, 51, 75, 46, 86, 77, 31, 64, 88, 38, 95, 47, 72]);
% time elapsed: 25.77 s
----------
%%%mzn-stat: initTime=0.022592392
%%%mzn-stat: objective=204
%%%mzn-stat: nodes=97269
%%%mzn-stat: restarts=5
%%%mzn-stat: peakDepth=1020
%%%mzn-stat: solveTime=24.3375982
%%%mzn-stat: variables=1797
%%%mzn-stat: propagators=6379
%%%mzn-stat: failures=73973
%%%mzn-stat: propagations=30905112
%%%mzn-stat: nogoods=73973
%%%mzn-stat: AverageConflictSize=12.917172481851486
%%%mzn-stat: NumUnitNogoodsLearned=184
%%%mzn-stat: AverageLearnedNogoodLength=40.93891014288997
%%%mzn-stat: AverageBacktrackAmount=0
%%%mzn-stat: AverageLbd=18.355683830586838
%%%mzn-stat-end
maxleg = 204;
succ = array1d(1..100,[41, 74, 84, 67, 29, 37, 91, 25, 18, 22, 48, 63, 100, 69, 82, 58, 62, 57, 90, 27, 94, 71, 98, 99, 43, 10, 45, 80, 34, 33, 14, 6, 92, 30, 36, 55, 54, 44, 28, 2, 3, 89, 4, 52, 59, 32, 20, 17, 76, 53, 7, 96, 81, 61, 70, 15, 5, 11, 85, 83, 39, 13, 1, 68, 78, 23, 65, 26, 9, 73, 49, 50, 56, 93, 8, 12, 16, 97, 60, 21, 79, 40, 42, 35, 87, 19, 66, 24, 51, 75, 46, 86, 77, 31, 64, 88, 38, 95, 47, 72]);
% time elapsed: 25.86 s
----------
%%%mzn-stat: initTime=0.022592392
%%%mzn-stat: objective=203
%%%mzn-stat: nodes=99947
%%%mzn-stat: restarts=6
%%%mzn-stat: peakDepth=1036
%%%mzn-stat: solveTime=24.565872662
%%%mzn-stat: variables=1797
%%%mzn-stat: propagators=6379
%%%mzn-stat: failures=74766
%%%mzn-stat: propagations=31338959
%%%mzn-stat: nogoods=74766
%%%mzn-stat: AverageConflictSize=12.858170826311426
%%%mzn-stat: NumUnitNogoodsLearned=184
%%%mzn-stat: AverageLearnedNogoodLength=40.78106358505203
%%%mzn-stat: AverageBacktrackAmount=0
%%%mzn-stat: AverageLbd=18.31613300163176
%%%mzn-stat-end
maxleg = 203;
succ = array1d(1..100,[41, 74, 84, 67, 29, 37, 91, 25, 18, 22, 48, 63, 100, 69, 82, 58, 62, 57, 90, 27, 94, 71, 98, 99, 43, 10, 45, 80, 34, 33, 14, 6, 92, 30, 36, 55, 54, 44, 28, 2, 3, 89, 4, 52, 59, 32, 20, 17, 76, 53, 7, 96, 81, 61, 70, 15, 5, 11, 85, 83, 39, 13, 1, 68, 78, 23, 65, 26, 9, 73, 49, 50, 56, 93, 8, 12, 16, 97, 60, 21, 79, 40, 42, 35, 87, 19, 66, 24, 51, 75, 46, 86, 77, 31, 64, 88, 38, 95, 47, 72]);
% time elapsed: 26.10 s
----------
%%%mzn-stat: initTime=0.022592392
%%%mzn-stat: objective=200
%%%mzn-stat: nodes=113966
%%%mzn-stat: restarts=13
%%%mzn-stat: peakDepth=1036
%%%mzn-stat: solveTime=27.107806391
%%%mzn-stat: variables=1797
%%%mzn-stat: propagators=6379
%%%mzn-stat: failures=83747
%%%mzn-stat: propagations=34883344
%%%mzn-stat: nogoods=83747
%%%mzn-stat: AverageConflictSize=12.545070271173893
%%%mzn-stat: NumUnitNogoodsLearned=184
%%%mzn-stat: AverageLearnedNogoodLength=39.8022257513702
%%%mzn-stat: AverageBacktrackAmount=0
%%%mzn-stat: AverageLbd=17.837928522812756
%%%mzn-stat-end
maxleg = 200;
succ = array1d(1..100,[41, 74, 84, 96, 29, 37, 20, 25, 18, 22, 48, 63, 100, 69, 82, 58, 62, 57, 90, 27, 94, 71, 98, 99, 43, 10, 45, 80, 34, 33, 14, 7, 92, 30, 36, 49, 51, 44, 28, 2, 3, 89, 4, 52, 59, 32, 65, 17, 55, 53, 61, 67, 81, 91, 70, 15, 5, 11, 85, 83, 39, 13, 1, 68, 78, 23, 54, 26, 9, 73, 76, 50, 56, 93, 8, 12, 16, 97, 60, 21, 79, 40, 42, 35, 87, 19, 66, 24, 6, 75, 46, 86, 77, 31, 64, 88, 38, 95, 47, 72]);
% time elapsed: 28.64 s
----------
%%%mzn-stat: initTime=0.022592392
%%%mzn-stat: objective=199
%%%mzn-stat: nodes=115537
%%%mzn-stat: restarts=14
%%%mzn-stat: peakDepth=1036
%%%mzn-stat: solveTime=27.159843926
%%%mzn-stat: variables=1797
%%%mzn-stat: propagators=6379
%%%mzn-stat: failures=83839
%%%mzn-stat: propagations=34954166
%%%mzn-stat: nogoods=83839
%%%mzn-stat: AverageConflictSize=12.53712472715562
%%%mzn-stat: NumUnitNogoodsLearned=184
%%%mzn-stat: AverageLearnedNogoodLength=39.79099225897255
%%%mzn-stat: AverageBacktrackAmount=0
%%%mzn-stat: AverageLbd=17.837044812080297
%%%mzn-stat-end
maxleg = 199;
succ = array1d(1..100,[41, 74, 84, 96, 29, 37, 20, 25, 18, 22, 48, 63, 100, 69, 82, 58, 62, 57, 90, 27, 94, 71, 98, 47, 43, 10, 45, 80, 34, 33, 14, 7, 92, 30, 36, 49, 51, 44, 28, 2, 3, 89, 4, 52, 59, 32, 65, 17, 55, 53, 61, 24, 81, 91, 70, 15, 5, 11, 85, 83, 39, 13, 1, 68, 67, 23, 54, 26, 9, 73, 76, 50, 56, 93, 8, 12, 16, 97, 60, 21, 79, 40, 42, 35, 87, 19, 66, 99, 6, 75, 46, 86, 77, 31, 64, 88, 38, 95, 78, 72]);
% time elapsed: 28.70 s
----------
%%%mzn-stat: initTime=0.022592392
%%%mzn-stat: objective=198
%%%mzn-stat: nodes=117658
%%%mzn-stat: restarts=15
%%%mzn-stat: peakDepth=1036
%%%mzn-stat: solveTime=27.419727357
%%%mzn-stat: variables=1797
%%%mzn-stat: propagators=6379
%%%mzn-stat: failures=84630
%%%mzn-stat: propagations=35377769
%%%mzn-stat: nogoods=84630
%%%mzn-stat: AverageConflictSize=12.494576391350584
%%%mzn-stat: NumUnitNogoodsLearned=184
%%%mzn-stat: AverageLearnedNogoodLength=39.7062980030722
%%%mzn-stat: AverageBacktrackAmount=0
%%%mzn-stat: AverageLbd=17.83778801843318
%%%mzn-stat-end
maxleg = 198;
succ = array1d(1..100,[41, 74, 84, 96, 29, 37, 20, 4, 86, 22, 48, 63, 100, 69, 82, 58, 62, 57, 90, 27, 94, 71, 98, 47, 43, 10, 45, 80, 34, 33, 25, 7, 92, 30, 36, 49, 51, 44, 28, 2, 3, 89, 8, 52, 59, 32, 65, 17, 55, 53, 61, 24, 81, 91, 70, 15, 9, 11, 85, 83, 39, 13, 1, 68, 67, 23, 54, 26, 18, 73, 76, 50, 56, 93, 5, 12, 16, 97, 60, 21, 79, 40, 42, 35, 87, 19, 66, 99, 6, 31, 46, 14, 77, 75, 64, 88, 38, 95, 78, 72]);
% time elapsed: 28.96 s
----------
%%%mzn-stat: initTime=0.022592392
%%%mzn-stat: objective=195
%%%mzn-stat: nodes=126309
%%%mzn-stat: restarts=16
%%%mzn-stat: peakDepth=1036
%%%mzn-stat: solveTime=29.001574095
%%%mzn-stat: variables=1797
%%%mzn-stat: propagators=6379
%%%mzn-stat: failures=90500
%%%mzn-stat: propagations=37478079
%%%mzn-stat: nogoods=90500
%%%mzn-stat: AverageConflictSize=12.225712707182321
%%%mzn-stat: NumUnitNogoodsLearned=184
%%%mzn-stat: AverageLearnedNogoodLength=38.96187845303867
%%%mzn-stat: AverageBacktrackAmount=0
%%%mzn-stat: AverageLbd=17.49068508287293
%%%mzn-stat-end
maxleg = 195;
succ = array1d(1..100,[41, 74, 84, 96, 29, 37, 20, 4, 86, 22, 48, 49, 100, 69, 82, 58, 62, 57, 90, 87, 94, 71, 59, 47, 43, 10, 23, 80, 34, 33, 25, 7, 92, 30, 36, 76, 51, 44, 28, 2, 35, 89, 8, 52, 27, 32, 65, 17, 55, 53, 61, 24, 81, 91, 70, 15, 9, 11, 85, 83, 39, 13, 1, 68, 67, 45, 54, 26, 18, 73, 3, 50, 56, 93, 5, 12, 16, 97, 60, 21, 79, 40, 42, 63, 98, 19, 66, 99, 6, 31, 46, 14, 77, 75, 64, 88, 38, 95, 78, 72]);
% time elapsed: 30.55 s
----------
%%%mzn-stat: initTime=0.022592392
%%%mzn-stat: objective=194
%%%mzn-stat: nodes=142150
%%%mzn-stat: restarts=18
%%%mzn-stat: peakDepth=1036
%%%mzn-stat: solveTime=32.152654887
%%%mzn-stat: variables=1797
%%%mzn-stat: propagators=6379
%%%mzn-stat: failures=101127
%%%mzn-stat: propagations=42126025
%%%mzn-stat: nogoods=101127
%%%mzn-stat: AverageConflictSize=12.12382449790857
%%%mzn-stat: NumUnitNogoodsLearned=184
%%%mzn-stat: AverageLearnedNogoodLength=38.58595627280548
%%%mzn-stat: AverageBacktrackAmount=0
%%%mzn-stat: AverageLbd=17.154825120887597
%%%mzn-stat-end
maxleg = 194;
succ = array1d(1..100,[41, 74, 84, 96, 29, 37, 20, 4, 92, 22, 48, 49, 100, 75, 82, 58, 62, 57, 90, 87, 94, 71, 59, 47, 31, 10, 23, 80, 34, 33, 69, 7, 86, 30, 36, 76, 51, 44, 28, 2, 35, 89, 8, 52, 27, 32, 65, 17, 55, 53, 61, 24, 81, 91, 70, 15, 9, 11, 85, 83, 39, 13, 1, 68, 67, 45, 54, 26, 18, 73, 3, 50, 56, 93, 5, 12, 16, 97, 60, 21, 79, 40, 42, 63, 98, 19, 66, 99, 6, 43, 46, 14, 77, 25, 64, 88, 38, 95, 78, 72]);
% time elapsed: 33.71 s
----------
%%%mzn-stat: initTime=0.022592392
%%%mzn-stat: objective=191
%%%mzn-stat: nodes=144036
%%%mzn-stat: restarts=19
%%%mzn-stat: peakDepth=1036
%%%mzn-stat: solveTime=32.247469571
%%%mzn-stat: variables=1797
%%%mzn-stat: propagators=6379
%%%mzn-stat: failures=101309
%%%mzn-stat: propagations=42253060
%%%mzn-stat: nogoods=101309
%%%mzn-stat: AverageConflictSize=12.114471567185541
%%%mzn-stat: NumUnitNogoodsLearned=184
%%%mzn-stat: AverageLearnedNogoodLength=38.5680344293202
%%%mzn-stat: AverageBacktrackAmount=0
%%%mzn-stat: AverageLbd=17.15330326032238
%%%mzn-stat-end
maxleg = 191;
succ = array1d(1..100,[71, 74, 36, 67, 29, 37, 20, 44, 92, 22, 48, 49, 100, 75, 82, 58, 62, 57, 90, 87, 94, 84, 59, 96, 31, 10, 23, 80, 34, 33, 69, 7, 86, 30, 41, 76, 51, 47, 28, 2, 26, 89, 8, 52, 27, 32, 65, 17, 55, 53, 61, 24, 81, 91, 70, 15, 9, 11, 85, 83, 39, 13, 1, 68, 4, 45, 54, 35, 18, 73, 3, 50, 56, 93, 5, 12, 16, 97, 60, 21, 79, 40, 42, 63, 98, 19, 66, 99, 6, 43, 46, 14, 77, 25, 64, 88, 38, 95, 78, 72]);
% time elapsed: 33.81 s
----------
%%%mzn-stat: initTime=0.022592392
%%%mzn-stat: objective=191
%%%mzn-stat: nodes=8125482
%%%mzn-stat: restarts=17467
%%%mzn-stat: peakDepth=1036
%%%mzn-stat: solveTime=1798.636470276
%%%mzn-stat: variables=1797
%%%mzn-stat: propagators=6379
%%%mzn-stat: failures=4579258
%%%mzn-stat: propagations=1951884549
%%%mzn-stat: nogoods=4579258
%%%mzn-stat: AverageConflictSize=14.376578476250955
%%%mzn-stat: NumUnitNogoodsLearned=184
%%%mzn-stat: AverageLearnedNogoodLength=36.57324811137525
%%%mzn-stat: AverageBacktrackAmount=0
%%%mzn-stat: AverageLbd=11.921145303453093
%%%mzn-stat-end
